commons/LK_FILES/TIC52-10-10-4.tsp
NAME: TIC52-10-10-4
TYPE: TSP
COMMENT: TSP
DIMENSION: 8
EDGE_WEIGHT_TYPE: EXPLICIT
EDGE_WEIGHT_FORMAT: FULL_MATRIX
EDGE_WEIGHT_SECTION
0 410 279 402 126 223 252 81 
410 0 154 437 336 410 80 340 
279 154 0 117 279 305 113 434 
402 437 117 0 284 324 456 294 
126 336 279 284 0 304 328 487 
223 410 305 324 304 0 283 321 
252 80 113 456 328 283 0 184 
81 340 434 294 487 321 184 0 
EOF
