commons/LK_FILES/TIC52-10-10-4.tour
NAME : TIC52-10-10-4.1370.tour
COMMENT : Length = 1370
COMMENT : Found by LKH [Keld Helsgaun] Thu Dec 15 16:56:56 2016
TYPE : TOUR
DIMENSION : 8
TOUR_SECTION
1
5
6
4
3
2
7
8
-1
EOF
